94 1
6 48
35 60
47 50
91 91
82 70
60 57
31 25
72 51
86 31
3 66
47 42
30 54
55 94
42 11
20 63
49 56
13 83
68 3
75 23
9 50
40 9
12 43
15 23
57 20
50 63
74 71
24 29
99 64
51 6
80 24
5 41
76 36
35 40
53 31
87 86
48 52
14 0
67 72
10 1
73 82
29 67
49 62
35 32
48 38
79 46
71 14
59 13
37 12
32 1
71 73
1 69
63 30
17 66
70 13
4 82
43 99
41 52
27 31
9 89
46 93
12 45
74 19
5 7
97 65
65 40
38 90
20 69
17 15
37 49
19 67
58 69
60 16
75 83
58 18
41 43
43 35
65 60
74 15
38 38
83 90
52 81
0 80
79 22
82 27
91 34
79 93
11 70
26 66
79 15
72 24
56 64
49 93
38 44
93 47
13 97
33 72
74 36
30 67
74 2
